

























































































45 46 48 26 
2 76 56 69 
13 9 58 
1 50 55 
24 29 25 
40 75 44 
16 52 22 
20 34 30 
67 57 37 
65 36 62 
68 72 63 
19 0 71 
7 6 42 
43 41 54 
38 61 47 
15 49 18 
60 64 21 
33 3 10 
74 32 28 
4 27 17 
51 35 14 59 
5 53 73 
23 70 66 
12 
31 11 39 8 
